Version identifier: 12.10.0.0 | 2019-11-26 | 843d4de
CPXPARAM_WorkMem                                 28672
Tried aggregator 2 times.
MIP Presolve modified 114 coefficients.
Aggregator did 75 substitutions.
Reduced MIP has 395 rows, 450 columns, and 1910 nonzeros.
Reduced MIP has 450 binaries, 0 generals, 0 SOSs, and 0 indicators.
Presolve time = 0,00 sec. (2,54 ticks)
Found incumbent of value 2110,000000 after 0,01 sec. (4,05 ticks)
Probing time = 0,00 sec. (1,00 ticks)
Tried aggregator 1 time.
Detecting symmetries...
MIP Presolve eliminated 60 rows and 0 columns.
MIP Presolve added 120 rows and 0 columns.
Reduced MIP has 455 rows, 450 columns, and 1970 nonzeros.
Reduced MIP has 450 binaries, 0 generals, 0 SOSs, and 0 indicators.
Presolve time = 0,00 sec. (2,32 ticks)
Probing time = 0,00 sec. (0,98 ticks)
Clique table members: 1405.
MIP emphasis: balance optimality and feasibility.
MIP search method: dynamic search.
Parallel mode: deterministic, using up to 16 threads.
Root relaxation solution time = 0,01 sec. (2,80 ticks)

        Nodes                                         Cuts/
   Node  Left     Objective  IInf  Best Integer    Best Bound    ItCnt     Gap

*     0+    0                         2110,0000        0,0000           100,00%
*     0+    0                         1100,0000        0,0000           100,00%
      0     0      443,8032   320     1100,0000      443,8032      217   59,65%
      0     0      447,6806   320     1100,0000     Cuts: 213      255   59,30%
      0     0      459,4952   320     1100,0000     Cuts: 213      410   58,23%
      0     0      466,7425   320     1100,0000     Cuts: 213      528   57,57%
      0     0      468,9075   320     1100,0000     Cuts: 213      596   57,37%
*     0+    0                         1000,0000      468,9075            53,11%
      0     0      472,2865   320     1000,0000      Cuts: 93      669   52,77%
      0     0      473,6007   320     1000,0000      Cuts: 28      730   52,64%
      0     0      475,5727   320     1000,0000      Cuts: 30      818   52,44%
      0     0      478,3264   320     1000,0000     Cuts: 213      976   52,17%
      0     0      480,0095   320     1000,0000     Cuts: 119     1035   52,00%
      0     0      481,9257   320     1000,0000      Cuts: 23     1100   51,81%
      0     0      483,3078   320     1000,0000      Cuts: 33     1194   51,67%
      0     0      484,3855   320     1000,0000      Cuts: 49     1310   51,56%
      0     0      485,1661   320     1000,0000     Cuts: 163     1339   51,48%
      0     0      495,2675   320     1000,0000      Cuts: 49     1601   50,47%
      0     0      498,2574   320     1000,0000     Cuts: 213     1728   50,17%
      0     0      499,9512   320     1000,0000      Cuts: 26     1865   50,00%
      0     0      501,1307   320     1000,0000     Cuts: 105     1941   49,89%
*     0+    0                          991,0000      501,1307            49,43%
      0     0      501,6291   320      991,0000  ZeroHalf: 39     2012   49,38%
      0     0      501,9905   320      991,0000      Cuts: 26     2076   49,35%
      0     0      502,3287   320      991,0000      Cuts: 25     2133   49,31%
      0     0      502,7876   320      991,0000      Cuts: 30     2253   49,26%
      0     0      503,4219   320      991,0000     Cuts: 107     2353   49,20%
      0     0      504,0326   320      991,0000      Cuts: 31     2472   49,14%
      0     0      504,6751   320      991,0000      Cuts: 82     2587   49,07%
      0     0      504,9651   320      991,0000      Cuts: 32     2674   49,04%
      0     0      505,4209   320      991,0000      Cuts: 62     2800   49,00%
      0     0      505,7031   320      991,0000      Cuts: 29     2889   48,97%
      0     0      505,9280   320      991,0000  ZeroHalf: 23     2970   48,95%
      0     0      506,1874   320      991,0000      Cuts: 87     3079   48,92%
      0     0      506,4126   320      991,0000      Cuts: 15     3156   46,44%
      0     0      509,0096   320      991,0000      Cuts: 43     3408   46,44%
*     0+    0                          980,0000      530,7417            45,84%
      0     0      511,5861   320      980,0000      Cuts: 95     3625   44,33%
      0     2      511,5861   448      980,0000      545,5885     3625   44,33%
Elapsed time = 1,16 sec. (766,82 ticks, tree = 0,02 MB, solutions = 5)
*  1062+  475                          968,0000      583,8570            39,68%
   1127   739      914,2788    33      968,0000      583,8570    50840   39,68%
   1600   409        cutoff            968,0000      622,0003    33610   35,74%
   2342  1437      871,5459   108      968,0000      655,6757   108710   32,26%
   3945  2369      939,0607   138      968,0000      687,5946   175099   28,97%

Performing restart 1

Repeating presolve.
Tried aggregator 1 time.
MIP Presolve modified 15 coefficients.
Reduced MIP has 455 rows, 450 columns, and 1970 nonzeros.
Reduced MIP has 450 binaries, 0 generals, 0 SOSs, and 0 indicators.
Presolve time = 0,00 sec. (1,33 ticks)
Tried aggregator 1 time.
Reduced MIP has 455 rows, 450 columns, and 1970 nonzeros.
Reduced MIP has 450 binaries, 0 generals, 0 SOSs, and 0 indicators.
Presolve time = 0,00 sec. (1,63 ticks)
Represolve time = 0,03 sec. (15,45 ticks)
   4600     0      522,0614   448      968,0000      Cuts: 32   236610   26,53%
   4600     0      528,3632   448      968,0000      Cuts: 40   236832   26,53%
   4600     0      531,8303   448      968,0000      Cuts: 55   237005   26,53%
   4600     0      538,7132   448      968,0000      Cuts: 52   237316   26,53%
   4600     0      544,0032   448      968,0000     Cuts: 136   237596   26,53%
   4600     0      544,8691   448      968,0000      Cuts: 99   237786   26,53%
   4600     2      544,8691   446      968,0000      711,1416   237786   26,53%
   4603     3      585,1251   336      968,0000      711,1416   238665   26,53%
   4615    14      613,3004   401      968,0000      711,1416   242052   26,53%
   4849    99      910,4964   203      968,0000      711,1416   256029   26,53%
*  5254+  404                          966,0000      711,1416            26,38%
   5384   570      944,9222   137      966,0000      711,1416   309681   26,38%
   8732  3091      755,4186   382      966,0000      711,1416   450090   26,38%
Elapsed time = 5,64 sec. (4757,37 ticks, tree = 17,39 MB, solutions = 7)

Performing restart 2

Repeating presolve.
Tried aggregator 1 time.
Reduced MIP has 455 rows, 450 columns, and 1970 nonzeros.
Reduced MIP has 450 binaries, 0 generals, 0 SOSs, and 0 indicators.
Presolve time = 0,00 sec. (1,16 ticks)
Tried aggregator 1 time.
Reduced MIP has 455 rows, 450 columns, and 1970 nonzeros.
Reduced MIP has 450 binaries, 0 generals, 0 SOSs, and 0 indicators.
Presolve time = 0,00 sec. (1,63 ticks)
Represolve time = 0,04 sec. (20,93 ticks)
  10467     0      546,8071   448      966,0000      Cuts: 19   545469   26,38%
  10467     0      547,3131   448      966,0000      Cuts: 46   545622   26,38%
  10467     0      548,7009   448      966,0000      Cuts: 60   545797   26,38%
  10467     0      550,0363   448      966,0000      Cuts: 74   545976   26,38%
  10467     0      550,1768   448      966,0000      Cuts: 34   546089   26,38%
  10467     0      550,4001   448      966,0000      Cuts: 49   546216   26,38%
  10467     0      552,6337   448      966,0000      Cuts: 39   546458   26,38%
  10467     0      553,2666   448      966,0000     Cuts: 110   546585   26,38%
  10467     2      553,2666   449      966,0000      711,1416   546585   26,38%
  14302  2669        cutoff            966,0000      712,3869   721825   26,25%
  19290  5573      911,5224   136      966,0000      765,4774   939837   20,76%
  24335  8189      946,9271   108      966,0000      797,7287  1165240   17,42%
  29115 10037        cutoff            966,0000      824,2564  1392818   14,67%
  34021 11332        cutoff            966,0000      844,6384  1629424   12,56%
  38701 11830      943,3141   153      966,0000      861,3026  1841954   10,84%
  43344 11113        cutoff            966,0000      882,5061  2075908    8,64%
* 44887 10453      integral     0      957,0000      889,4344  2171183    7,06%
  48600  6338        cutoff            957,0000      916,8463  2322456    4,20%

GUB cover cuts applied:  34
Clique cuts applied:  60
Cover cuts applied:  628
Flow cuts applied:  12
Mixed integer rounding cuts applied:  236
Zero-half cuts applied:  74
Lift and project cuts applied:  28
Gomory fractional cuts applied:  44

Root node processing (before b&c):
  Real time             =    1,15 sec. (764,37 ticks)
Parallel b&c, 16 threads:
  Real time             =   15,91 sec. (13929,31 ticks)
  Sync time (average)   =    3,41 sec.
  Wait time (average)   =    0,01 sec.
                          ------------
Total (root+branch&cut) =   17,07 sec. (14693,68 ticks)
